GLPSOL--GLPK LP/MIP Solver 5.0
Parameter(s) specified in the command line:
 --lp ../modeles/5_454.lp --log 5_454.log
Reading problem data from '../modeles/5_454.lp'...
2291 rows, 4550 columns, 15905 non-zeros
2270 integer variables, all of which are binary
6852 lines were read
GLPK Integer Optimizer 5.0
2291 rows, 4550 columns, 15905 non-zeros
2270 integer variables, all of which are binary
Preprocessing...
2250 constraint coefficient(s) were reduced
2291 rows, 4545 columns, 15900 non-zeros
2270 integer variables, all of which are binary
Scaling...
 A: min|aij| =  7.763e-05  max|aij| =  4.000e+00  ratio =  5.153e+04
GM: min|aij| =  6.637e-02  max|aij| =  1.507e+01  ratio =  2.270e+02
EQ: min|aij| =  4.405e-03  max|aij| =  1.000e+00  ratio =  2.270e+02
2N: min|aij| =  3.906e-03  max|aij| =  1.762e+00  ratio =  4.511e+02
Constructing initial basis...
Size of triangular part is 2291
Solving LP relaxation...
GLPK Simplex Optimizer 5.0
2291 rows, 4545 columns, 15900 non-zeros
      0: obj =   1.000000000e+01 inf =   2.450e+01 (11)
    134: obj =   4.367606960e-01 inf =   0.000e+00 (0)
*   432: obj =  -2.235988136e+00 inf =   2.696e-15 (0)
OPTIMAL LP SOLUTION FOUND
Integer optimization begins...
Long-step dual simplex will be used
+   432: mip =     not found yet >=              -inf        (1; 0)
+   951: >>>>>  -2.235988136e+00 >=  -2.235988136e+00 < 0.1% (519; 0)
+   951: mip =  -2.235988136e+00 >=     tree is empty   0.0% (0; 1037)
INTEGER OPTIMAL SOLUTION FOUND
Time used:   1.8 secs
Memory used: 6.7 Mb (6976039 bytes)
